Welcome to the CBC MILP Solver 
Version: 2.10.7 
Build Date: Feb 14 2022 

command line - cbc inputs/new_no_tr/order/default40_down_left_input.lp sec 1800 solve solu solutions/new_no_tr/default40_down_left_input.lp (default strategy 1)
seconds was changed from 1e+100 to 1800
Continuous objective value is 37371.3 - 3.08 seconds
Cgl0002I 166 variables fixed
Cgl0003I 0 fixed, 31 tightened bounds, 906 strengthened rows, 0 substitutions
Cgl0003I 0 fixed, 25 tightened bounds, 294 strengthened rows, 0 substitutions
Cgl0003I 0 fixed, 18 tightened bounds, 217 strengthened rows, 0 substitutions
Cgl0003I 0 fixed, 10 tightened bounds, 104 strengthened rows, 0 substitutions
Cgl0003I 0 fixed, 11 tightened bounds, 46 strengthened rows, 0 substitutions
Cgl0003I 0 fixed, 9 tightened bounds, 40 strengthened rows, 0 substitutions
Cgl0003I 0 fixed, 4 tightened bounds, 29 strengthened rows, 0 substitutions
Cgl0004I processed model has 5737 rows, 1772 columns (1772 integer (1731 of which binary)) and 19484 elements
Cutoff increment increased from 1e-05 to 0.9999
Cbc0045I 1 integer variables out of 1772 objects (1772 integer) have cost of 1 - high priority
Cbc0045I branch on satisfied Y create fake objective Y random cost Y
Cbc0038I Initial state - 1088 integers unsatisfied sum - 317.51
Cbc0038I Pass   1: (5.39 seconds) suminf.  143.02959 (528) obj. 58385.5 iterations 4108
Cbc0038I Pass   2: (5.72 seconds) suminf.   90.77600 (496) obj. 62561.7 iterations 1660
Cbc0038I Pass   3: (6.04 seconds) suminf.   68.59016 (478) obj. 65637.9 iterations 1635
Cbc0038I Pass   4: (6.19 seconds) suminf.   63.72364 (408) obj. 65580.3 iterations 752
Cbc0038I Pass   5: (6.20 seconds) suminf.   63.83146 (408) obj. 65580.4 iterations 11
Cbc0038I Pass   6: (6.33 seconds) suminf.   57.98527 (424) obj. 64983.4 iterations 612
Cbc0038I Pass   7: (6.40 seconds) suminf.   55.36578 (408) obj. 64987.4 iterations 260
Cbc0038I Pass   8: (6.48 seconds) suminf.   53.45557 (385) obj. 64836 iterations 319
Cbc0038I Pass   9: (6.52 seconds) suminf.   52.66830 (380) obj. 64907.1 iterations 178
Cbc0038I Pass  10: (6.56 seconds) suminf.   51.26094 (377) obj. 64836 iterations 165
Cbc0038I Pass  11: (6.57 seconds) suminf.   50.63981 (380) obj. 64831.2 iterations 28
Cbc0038I Pass  12: (6.59 seconds) suminf.   50.93247 (375) obj. 64831.2 iterations 31
Cbc0038I Pass  13: (6.71 seconds) suminf.   46.37608 (349) obj. 64708.9 iterations 698
Cbc0038I Pass  14: (6.75 seconds) suminf.   45.68776 (357) obj. 64665.2 iterations 164
Cbc0038I Pass  15: (6.90 seconds) suminf.   35.79759 (304) obj. 64613.1 iterations 876
Cbc0038I Pass  16: (6.94 seconds) suminf.   34.92282 (310) obj. 64593.4 iterations 153
Cbc0038I Pass  17: (6.94 seconds) suminf.   34.92282 (310) obj. 64593.4 iterations 0
Cbc0038I Pass  18: (7.02 seconds) suminf.   32.71193 (310) obj. 64570.2 iterations 323
Cbc0038I Pass  19: (7.04 seconds) suminf.   32.73426 (331) obj. 64540.8 iterations 55
Cbc0038I Pass  20: (7.15 seconds) suminf.   28.28692 (252) obj. 64657.6 iterations 629
Cbc0038I Pass  21: (7.22 seconds) suminf.   23.55849 (280) obj. 65830.7 iterations 339
Cbc0038I Pass  22: (7.26 seconds) suminf.   24.01944 (305) obj. 65224.9 iterations 179
Cbc0038I Pass  23: (7.36 seconds) suminf.   25.06919 (262) obj. 65648.3 iterations 477
Cbc0038I Pass  24: (7.37 seconds) suminf.   25.02773 (266) obj. 65676.6 iterations 37
Cbc0038I Pass  25: (7.47 seconds) suminf.   24.31138 (226) obj. 65566.1 iterations 490
Cbc0038I Pass  26: (7.48 seconds) suminf.   24.63684 (233) obj. 65507.4 iterations 34
Cbc0038I Pass  27: (7.57 seconds) suminf.   21.88161 (242) obj. 65507.6 iterations 436
Cbc0038I Pass  28: (7.59 seconds) suminf.   21.91529 (242) obj. 65507.5 iterations 32
Cbc0038I Pass  29: (7.92 seconds) suminf.   13.04596 (192) obj. 65236.2 iterations 1961
Cbc0038I Pass  30: (7.94 seconds) suminf.   12.84679 (190) obj. 65488.7 iterations 86
Cbc0038I Pass  31: (8.07 seconds) suminf.   11.07188 (130) obj. 66577.8 iterations 631
Cbc0038I Pass  32: (8.30 seconds) suminf.    8.21829 (175) obj. 66945.7 iterations 1307
Cbc0038I Pass  33: (8.62 seconds) suminf.    6.71064 (86) obj. 65830.3 iterations 1855
Cbc0038I Pass  34: (8.65 seconds) suminf.    5.96425 (89) obj. 66209.3 iterations 101
Cbc0038I Pass  35: (8.82 seconds) suminf.    4.46916 (75) obj. 60222.2 iterations 945
Cbc0038I Pass  36: (8.84 seconds) suminf.    4.48670 (76) obj. 60222.7 iterations 61
Cbc0038I Pass  37: (9.00 seconds) suminf.    0.00000 (0) obj. 56320 iterations 839
Cbc0038I Solution found of 56320
Cbc0038I Cleaned solution of 56320
Cbc0038I Before mini branch and bound, 456 integers at bound fixed and 0 continuous
Cbc0038I Mini branch and bound did not improve solution (9.09 seconds)
Cbc0038I Round again with cutoff of 54429.4
Cbc0038I Pass  38: (9.17 seconds) suminf.  145.98488 (532) obj. 54429 iterations 202
Cbc0038I Pass  39: (9.52 seconds) suminf.   85.12540 (457) obj. 54429.4 iterations 1857
Cbc0038I Pass  40: (9.65 seconds) suminf.   71.29326 (428) obj. 54429.4 iterations 677
Cbc0038I Pass  41: (9.79 seconds) suminf.   62.10064 (455) obj. 54429.4 iterations 674
Cbc0038I Pass  42: (9.85 seconds) suminf.   59.10627 (446) obj. 54429.4 iterations 259
Cbc0038I Pass  43: (9.86 seconds) suminf.   59.00939 (445) obj. 54429.4 iterations 9
Cbc0038I Pass  44: (9.99 seconds) suminf.   56.81116 (419) obj. 54429.4 iterations 672
Cbc0038I Pass  45: (10.00 seconds) suminf.   56.51822 (420) obj. 54429.4 iterations 49
Cbc0038I Pass  46: (10.07 seconds) suminf.   58.48277 (412) obj. 54429.4 iterations 281
Cbc0038I Pass  47: (10.10 seconds) suminf.   57.52597 (404) obj. 54429.4 iterations 112
Cbc0038I Pass  48: (10.12 seconds) suminf.   56.46419 (402) obj. 54429.4 iterations 84
Cbc0038I Pass  49: (10.18 seconds) suminf.   51.27811 (381) obj. 54429.4 iterations 298
Cbc0038I Pass  50: (10.43 seconds) suminf.   45.00273 (372) obj. 54429.4 iterations 1379
Cbc0038I Pass  51: (10.46 seconds) suminf.   43.94851 (378) obj. 54429.4 iterations 106
Cbc0038I Pass  52: (10.58 seconds) suminf.   34.73940 (351) obj. 54429.4 iterations 641
Cbc0038I Pass  53: (10.60 seconds) suminf.   34.34439 (347) obj. 54429.4 iterations 78
Cbc0038I Pass  54: (10.76 seconds) suminf.   30.85256 (279) obj. 54429.4 iterations 1007
Cbc0038I Pass  55: (10.81 seconds) suminf.   26.07601 (285) obj. 54429.4 iterations 297
Cbc0038I Pass  56: (10.98 seconds) suminf.   23.59919 (289) obj. 54429.4 iterations 1001
Cbc0038I Pass  57: (11.03 seconds) suminf.   23.10880 (284) obj. 54429.4 iterations 221
Cbc0038I Pass  58: (11.09 seconds) suminf.   20.19494 (288) obj. 54429.4 iterations 255
Cbc0038I Pass  59: (11.10 seconds) suminf.   20.17725 (289) obj. 54429.4 iterations 43
Cbc0038I Pass  60: (11.15 seconds) suminf.   21.99377 (276) obj. 54429.4 iterations 213
Cbc0038I Pass  61: (11.16 seconds) suminf.   22.38412 (280) obj. 54429.4 iterations 35
Cbc0038I Pass  62: (11.39 seconds) suminf.   18.48752 (266) obj. 54429.4 iterations 1395
Cbc0038I Pass  63: (11.45 seconds) suminf.   17.94102 (267) obj. 54429.4 iterations 264
Cbc0038I Pass  64: (11.64 seconds) suminf.   12.88201 (174) obj. 54429.4 iterations 1024
Cbc0038I Pass  65: (11.67 seconds) suminf.   10.94302 (165) obj. 54429.4 iterations 152
Cbc0038I Pass  66: (11.79 seconds) suminf.    8.44517 (187) obj. 54429.4 iterations 567
Cbc0038I Pass  67: (11.82 seconds) suminf.    7.83052 (186) obj. 54429.4 iterations 154
Cbc0038I Pass  68: (11.87 seconds) suminf.    9.84872 (168) obj. 54429.4 iterations 270
Cbc0038I Pass  69: (11.88 seconds) suminf.    9.78210 (165) obj. 54429.4 iterations 42
Cbc0038I Pass  70: (11.91 seconds) suminf.    8.85995 (169) obj. 54429.4 iterations 162
Cbc0038I Pass  71: (11.92 seconds) suminf.    8.69997 (165) obj. 54429.4 iterations 35
Cbc0038I Pass  72: (11.99 seconds) suminf.    9.92673 (167) obj. 54429.4 iterations 331
Cbc0038I Pass  73: (12.00 seconds) suminf.    9.92673 (167) obj. 54429.4 iterations 7
Cbc0038I Pass  74: (12.14 seconds) suminf.    9.05842 (166) obj. 54429.4 iterations 803
Cbc0038I Pass  75: (12.16 seconds) suminf.    7.09871 (96) obj. 54429.4 iterations 101
Cbc0038I Pass  76: (12.22 seconds) suminf.    9.03406 (76) obj. 54429.4 iterations 355
Cbc0038I Pass  77: (12.25 seconds) suminf.    6.52238 (84) obj. 54429.4 iterations 160
Cbc0038I Pass  78: (12.30 seconds) suminf.    8.49699 (73) obj. 54429.4 iterations 286
Cbc0038I Pass  79: (12.32 seconds) suminf.    6.62805 (80) obj. 54429.4 iterations 123
Cbc0038I Pass  80: (12.46 seconds) suminf.    7.23611 (61) obj. 54429.4 iterations 623
Cbc0038I Pass  81: (12.46 seconds) suminf.    7.23611 (61) obj. 54429.4 iterations 0
Cbc0038I Pass  82: (12.51 seconds) suminf.    6.00135 (68) obj. 54429.4 iterations 304
Cbc0038I Pass  83: (12.57 seconds) suminf.    5.83856 (74) obj. 54429.4 iterations 335
Cbc0038I Pass  84: (12.60 seconds) suminf.    5.69132 (77) obj. 54429.4 iterations 136
Cbc0038I Pass  85: (12.64 seconds) suminf.    9.84454 (56) obj. 54429.4 iterations 281
Cbc0038I Pass  86: (12.65 seconds) suminf.    9.84454 (56) obj. 54429.4 iterations 20
Cbc0038I Pass  87: (12.75 seconds) suminf.    3.33549 (29) obj. 54429.4 iterations 608
Cbc0038I Pass  88: (12.76 seconds) suminf.    3.33549 (29) obj. 54429.4 iterations 1
Cbc0038I Pass  89: (12.90 seconds) suminf.    3.45929 (17) obj. 54429.4 iterations 603
Cbc0038I Pass  90: (12.92 seconds) suminf.    1.86013 (6) obj. 54429.4 iterations 109
Cbc0038I Pass  91: (12.93 seconds) suminf.    1.86013 (6) obj. 54429.4 iterations 41
Cbc0038I Pass  92: (12.95 seconds) suminf.    0.43701 (1) obj. 54429.4 iterations 68
Cbc0038I Solution found of 54429.4
Cbc0038I Branch and bound needed to clear up 1 general integers
Cbc0038I Full problem 5738 rows 1772 columns, reduced to 0 rows 0 columns
Cbc0038I Cleaned solution of 51200
Cbc0038I Before mini branch and bound, 444 integers at bound fixed and 0 continuous
Cbc0038I Full problem 5737 rows 1772 columns, reduced to 4775 rows 1328 columns - 670 fixed gives 799, 135 - ok now
Cbc0038I Full problem 5737 rows 1772 columns, reduced to 135 rows 57 columns
Cbc0038I Mini branch and bound did not improve solution (14.14 seconds)
Cbc0038I Round again with cutoff of 48443.9
Cbc0038I Pass  93: (14.28 seconds) suminf.  151.58320 (592) obj. 48443.9 iterations 365
Cbc0038I Pass  94: (14.80 seconds) suminf.   94.22712 (566) obj. 48443.9 iterations 2386
Cbc0038I Pass  95: (15.17 seconds) suminf.   77.53564 (458) obj. 48443.9 iterations 1877
Cbc0038I Pass  96: (15.26 seconds) suminf.   76.01081 (463) obj. 48443.9 iterations 324
Cbc0038I Pass  97: (15.52 seconds) suminf.   68.61413 (492) obj. 48443.9 iterations 1247
Cbc0038I Pass  98: (15.63 seconds) suminf.   63.82851 (489) obj. 48443.9 iterations 407
Cbc0038I Pass  99: (15.96 seconds) suminf.   50.90201 (424) obj. 48443.9 iterations 1562
Cbc0038I Pass 100: (16.03 seconds) suminf.   50.73669 (415) obj. 48443.9 iterations 261
Cbc0038I Pass 101: (16.33 seconds) suminf.   42.07821 (419) obj. 48443.9 iterations 1529
Cbc0038I Pass 102: (16.38 seconds) suminf.   41.44865 (401) obj. 48443.9 iterations 207
Cbc0038I Pass 103: (16.39 seconds) suminf.   41.44865 (401) obj. 48443.9 iterations 16
Cbc0038I Pass 104: (16.58 seconds) suminf.   38.70496 (377) obj. 48443.9 iterations 1007
Cbc0038I Pass 105: (16.65 seconds) suminf.   35.76772 (400) obj. 48443.9 iterations 300
Cbc0038I Pass 106: (16.78 seconds) suminf.   28.35815 (375) obj. 48443.9 iterations 609
Cbc0038I Pass 107: (16.79 seconds) suminf.   28.06512 (376) obj. 48443.9 iterations 37
Cbc0038I Pass 108: (17.03 seconds) suminf.   24.07343 (228) obj. 48443.9 iterations 1296
Cbc0038I Pass 109: (17.15 seconds) suminf.   19.23257 (231) obj. 48443.9 iterations 602
Cbc0038I Pass 110: (17.22 seconds) suminf.   19.83419 (209) obj. 48443.9 iterations 241
Cbc0038I Pass 111: (17.24 seconds) suminf.   19.73738 (208) obj. 48443.9 iterations 81
Cbc0038I Pass 112: (17.35 seconds) suminf.   20.67148 (195) obj. 48443.9 iterations 606
Cbc0038I Pass 113: (17.48 seconds) suminf.   17.80040 (207) obj. 48443.9 iterations 601
Cbc0038I Pass 114: (17.54 seconds) suminf.   18.21388 (202) obj. 48443.9 iterations 347
Cbc0038I Pass 115: (17.58 seconds) suminf.   16.85338 (214) obj. 48443.9 iterations 193
Cbc0038I Pass 116: (17.68 seconds) suminf.   17.21301 (211) obj. 48443.9 iterations 481
Cbc0038I Pass 117: (17.71 seconds) suminf.   16.58320 (222) obj. 48443.9 iterations 163
Cbc0038I Pass 118: (17.88 seconds) suminf.   17.44192 (191) obj. 48443.9 iterations 959
Cbc0038I Pass 119: (17.91 seconds) suminf.   16.44285 (191) obj. 48443.9 iterations 180
Cbc0038I Pass 120: (18.03 seconds) suminf.   18.42713 (209) obj. 48443.9 iterations 655
Cbc0038I Pass 121: (18.06 seconds) suminf.   17.78837 (202) obj. 48443.9 iterations 128
Cbc0038I Pass 122: (18.12 seconds) suminf.   15.11194 (184) obj. 48443.9 iterations 335
Cbc0038I Pass 123: (18.14 seconds) suminf.   13.65775 (185) obj. 48443.9 iterations 112
Cbc0038I Pass 124: (18.17 seconds) suminf.   13.15205 (190) obj. 48443.9 iterations 144
Cbc0038I Pass 125: (18.59 seconds) suminf.   13.14186 (153) obj. 48443.9 iterations 2211
Cbc0038I Pass 126: (18.60 seconds) suminf.   13.10350 (156) obj. 48443.9 iterations 75
Cbc0038I Pass 127: (18.67 seconds) suminf.   10.53349 (161) obj. 48443.9 iterations 329
Cbc0038I Pass 128: (18.68 seconds) suminf.   10.53639 (166) obj. 48443.9 iterations 81
Cbc0038I Pass 129: (18.79 seconds) suminf.   10.68808 (152) obj. 48443.9 iterations 598
Cbc0038I Pass 130: (18.80 seconds) suminf.   10.65117 (155) obj. 48443.9 iterations 68
Cbc0038I Pass 131: (18.88 seconds) suminf.   12.74498 (155) obj. 48443.9 iterations 411
Cbc0038I Pass 132: (18.98 seconds) suminf.    9.77651 (167) obj. 48443.9 iterations 546
Cbc0038I Pass 133: (19.02 seconds) suminf.   11.14834 (152) obj. 48443.9 iterations 264
Cbc0038I Pass 134: (19.05 seconds) suminf.   11.15590 (155) obj. 48443.9 iterations 112
Cbc0038I Pass 135: (19.18 seconds) suminf.    9.76586 (161) obj. 48443.9 iterations 836
Cbc0038I Pass 136: (19.39 seconds) suminf.    9.98660 (143) obj. 48443.9 iterations 1516
Cbc0038I Pass 137: (19.42 seconds) suminf.    9.23875 (139) obj. 48443.9 iterations 171
Cbc0038I Pass 138: (19.54 seconds) suminf.   10.26268 (142) obj. 48443.9 iterations 763
Cbc0038I Pass 139: (19.54 seconds) suminf.   10.26268 (142) obj. 48443.9 iterations 17
Cbc0038I Pass 140: (19.74 seconds) suminf.   15.80760 (132) obj. 48443.9 iterations 1326
Cbc0038I Pass 141: (19.84 seconds) suminf.    8.87867 (134) obj. 48443.9 iterations 685
Cbc0038I Pass 142: (20.09 seconds) suminf.   11.61865 (143) obj. 48443.9 iterations 1503
Cbc0038I Pass 143: (20.43 seconds) suminf.   52.95634 (335) obj. 48443.9 iterations 2275
Cbc0038I Pass 144: (20.61 seconds) suminf.   30.63715 (233) obj. 48443.9 iterations 1165
Cbc0038I Pass 145: (20.63 seconds) suminf.   28.55498 (222) obj. 48443.9 iterations 69
Cbc0038I Pass 146: (20.64 seconds) suminf.   28.55498 (222) obj. 48443.9 iterations 21
Cbc0038I Pass 147: (20.69 seconds) suminf.   22.75786 (208) obj. 48443.9 iterations 323
Cbc0038I Pass 148: (20.71 seconds) suminf.   22.05252 (204) obj. 48443.9 iterations 83
Cbc0038I Pass 149: (20.76 seconds) suminf.   17.22681 (179) obj. 48443.9 iterations 315
Cbc0038I Pass 150: (20.77 seconds) suminf.   17.04215 (178) obj. 48443.9 iterations 32
Cbc0038I Pass 151: (20.82 seconds) suminf.   15.31431 (175) obj. 48443.9 iterations 333
Cbc0038I Pass 152: (20.83 seconds) suminf.   13.69724 (171) obj. 48443.9 iterations 103
Cbc0038I Pass 153: (20.92 seconds) suminf.   10.24305 (161) obj. 48443.9 iterations 697
Cbc0038I Pass 154: (20.93 seconds) suminf.   10.19132 (160) obj. 48443.9 iterations 92
Cbc0038I Pass 155: (21.02 seconds) suminf.   15.90137 (141) obj. 48443.9 iterations 612
Cbc0038I Pass 156: (21.07 seconds) suminf.   11.31208 (154) obj. 48443.9 iterations 229
Cbc0038I Pass 157: (21.11 seconds) suminf.   11.67955 (158) obj. 48443.9 iterations 307
Cbc0038I Pass 158: (21.13 seconds) suminf.   11.43024 (161) obj. 48443.9 iterations 86
Cbc0038I Pass 159: (21.20 seconds) suminf.   13.79799 (183) obj. 48443.9 iterations 614
Cbc0038I Pass 160: (21.22 seconds) suminf.   13.70352 (186) obj. 48443.9 iterations 96
Cbc0038I Pass 161: (21.31 seconds) suminf.   12.30206 (173) obj. 48443.9 iterations 656
Cbc0038I Pass 162: (21.34 seconds) suminf.   11.48423 (165) obj. 48443.9 iterations 178
Cbc0038I Pass 163: (21.43 seconds) suminf.   12.60709 (183) obj. 48443.9 iterations 697
Cbc0038I Pass 164: (21.44 seconds) suminf.   12.51798 (186) obj. 48443.9 iterations 76
Cbc0038I Pass 165: (21.54 seconds) suminf.   12.37849 (173) obj. 48443.9 iterations 665
Cbc0038I Pass 166: (21.56 seconds) suminf.   11.42307 (165) obj. 48443.9 iterations 179
Cbc0038I Pass 167: (21.59 seconds) suminf.   11.73399 (158) obj. 48443.9 iterations 183
Cbc0038I Pass 168: (21.64 seconds) suminf.   11.51594 (159) obj. 48443.9 iterations 400
Cbc0038I Pass 169: (21.65 seconds) suminf.   11.51594 (159) obj. 48443.9 iterations 15
Cbc0038I Pass 170: (21.72 seconds) suminf.   13.13043 (190) obj. 48443.9 iterations 549
Cbc0038I Pass 171: (21.74 seconds) suminf.   12.10697 (176) obj. 48443.9 iterations 116
Cbc0038I Pass 172: (21.86 seconds) suminf.   12.08940 (155) obj. 48443.9 iterations 802
Cbc0038I Pass 173: (21.89 seconds) suminf.   10.82400 (146) obj. 48443.9 iterations 185
Cbc0038I Pass 174: (21.96 seconds) suminf.   10.00813 (146) obj. 48443.9 iterations 566
Cbc0038I Pass 175: (21.98 seconds) suminf.   10.00813 (146) obj. 48443.9 iterations 22
Cbc0038I Pass 176: (22.07 seconds) suminf.   10.42800 (144) obj. 48443.9 iterations 539
Cbc0038I Pass 177: (22.09 seconds) suminf.   10.34620 (143) obj. 48443.9 iterations 84
Cbc0038I Pass 178: (22.15 seconds) suminf.    9.56154 (140) obj. 48443.9 iterations 411
Cbc0038I Pass 179: (22.18 seconds) suminf.    9.08645 (139) obj. 48443.9 iterations 122
Cbc0038I Pass 180: (22.25 seconds) suminf.   10.42800 (144) obj. 48443.9 iterations 475
Cbc0038I Pass 181: (22.57 seconds) suminf.   70.02403 (389) obj. 48443.9 iterations 2014
Cbc0038I Pass 182: (22.85 seconds) suminf.   28.08026 (209) obj. 48443.9 iterations 1755
Cbc0038I Pass 183: (22.93 seconds) suminf.   23.37414 (212) obj. 48443.9 iterations 546
Cbc0038I Pass 184: (22.94 seconds) suminf.   23.17022 (200) obj. 48443.9 iterations 20
Cbc0038I Pass 185: (23.04 seconds) suminf.   13.61742 (158) obj. 48443.9 iterations 748
Cbc0038I Pass 186: (23.05 seconds) suminf.   13.61742 (158) obj. 48443.9 iterations 7
Cbc0038I Pass 187: (23.10 seconds) suminf.   10.63830 (150) obj. 48443.9 iterations 350
Cbc0038I Pass 188: (23.11 seconds) suminf.   10.63775 (149) obj. 48443.9 iterations 44
Cbc0038I Pass 189: (23.15 seconds) suminf.   11.61391 (128) obj. 48443.9 iterations 270
Cbc0038I Pass 190: (23.19 seconds) suminf.    8.34708 (130) obj. 48443.9 iterations 180
Cbc0038I Pass 191: (23.28 seconds) suminf.   14.21510 (146) obj. 48443.9 iterations 668
Cbc0038I Pass 192: (23.65 seconds) suminf.   79.60437 (426) obj. 48443.9 iterations 2275
Cbc0038I No solution found this major pass
Cbc0038I Before mini branch and bound, 273 integers at bound fixed and 0 continuous
Cbc0038I Full problem 5737 rows 1772 columns, reduced to 5146 rows 1499 columns - 686 fixed gives 840, 133 - ok now
Cbc0038I Mini branch and bound did not improve solution (24.82 seconds)
Cbc0038I After 24.82 seconds - Feasibility pump exiting with objective of 51200 - took 20.40 seconds
Cbc0012I Integer solution of 51200 found by feasibility pump after 0 iterations and 0 nodes (24.82 seconds)
Cbc0038I Full problem 5737 rows 1772 columns, reduced to 4378 rows 1137 columns - 665 fixed gives 214, 56 - ok now
Cbc0031I 31 added rows had average density of 7.5806452
Cbc0013I At root node, 31 cuts changed objective from 37423.369 to 38621.306 in 11 passes
Cbc0014I Cut generator 0 (Probing) - 7 row cuts average 3.0 elements, 2 column cuts (2 active)  in 0.151 seconds - new frequency is 1
Cbc0014I Cut generator 1 (Gomory) - 39 row cuts average 5.4 elements, 0 column cuts (0 active)  in 1.028 seconds - new frequency is 1
Cbc0014I Cut generator 2 (Knapsack) - 0 row cuts average 0.0 elements, 0 column cuts (0 active)  in 0.022 seconds - new frequency is -100
Cbc0014I Cut generator 3 (Clique) - 0 row cuts average 0.0 elements, 0 column cuts (0 active)  in 0.048 seconds - new frequency is -100
Cbc0014I Cut generator 4 (MixedIntegerRounding2) - 0 row cuts average 0.0 elements, 0 column cuts (0 active)  in 0.026 seconds - new frequency is -100
Cbc0014I Cut generator 5 (FlowCover) - 0 row cuts average 0.0 elements, 0 column cuts (0 active)  in 0.016 seconds - new frequency is -100
Cbc0014I Cut generator 6 (TwoMirCuts) - 62 row cuts average 10.1 elements, 0 column cuts (0 active)  in 0.426 seconds - new frequency is 1
Cbc0010I After 0 nodes, 1 on tree, 51200 best solution, best possible 38621.306 (38.89 seconds)
Cbc0038I Full problem 5737 rows 1772 columns, reduced to 4065 rows 1096 columns - 574 fixed gives 276, 64 - ok now
Cbc0038I Full problem 5737 rows 1772 columns, reduced to 4084 rows 1099 columns - 579 fixed gives 262, 61 - ok now
Cbc0010I After 100 nodes, 13 on tree, 51200 best solution, best possible 39674.113 (183.89 seconds)
Cbc0038I Full problem 5737 rows 1772 columns, reduced to 4065 rows 1092 columns - 577 fixed gives 263, 61 - ok now
Cbc0010I After 200 nodes, 22 on tree, 51200 best solution, best possible 39674.113 (450.80 seconds)
Cbc0038I Full problem 5737 rows 1772 columns, reduced to 4037 rows 1081 columns - 576 fixed gives 241, 57 - ok now
Cbc0010I After 300 nodes, 50 on tree, 51200 best solution, best possible 39674.113 (625.38 seconds)
Cbc0038I Full problem 5737 rows 1772 columns, reduced to 3811 rows 975 columns - 572 fixed gives 185, 50 - ok now
Cbc0010I After 400 nodes, 60 on tree, 51200 best solution, best possible 39674.113 (802.23 seconds)
Cbc0038I Full problem 5737 rows 1772 columns, reduced to 3877 rows 984 columns - 588 fixed gives 185, 50 - ok now
Cbc0010I After 500 nodes, 71 on tree, 51200 best solution, best possible 39674.113 (935.10 seconds)
Cbc0038I Full problem 5737 rows 1772 columns, reduced to 3848 rows 978 columns - 584 fixed gives 185, 50 - ok now
Cbc0010I After 600 nodes, 77 on tree, 51200 best solution, best possible 39674.113 (1069.57 seconds)
Cbc0038I Full problem 5737 rows 1772 columns, reduced to 3816 rows 971 columns - 579 fixed gives 185, 50 - ok now
Cbc0010I After 700 nodes, 92 on tree, 51200 best solution, best possible 39674.113 (1216.28 seconds)
Cbc0038I Full problem 5737 rows 1772 columns, reduced to 3801 rows 966 columns - 579 fixed gives 168, 47 - ok now
Cbc0010I After 800 nodes, 104 on tree, 51200 best solution, best possible 39674.113 (1365.84 seconds)
Cbc0010I After 900 nodes, 109 on tree, 51200 best solution, best possible 39674.113 (1517.83 seconds)
Cbc0010I After 1000 nodes, 112 on tree, 51200 best solution, best possible 39674.113 (1656.97 seconds)
Cbc0010I After 1100 nodes, 118 on tree, 51200 best solution, best possible 39674.113 (1788.38 seconds)
Cbc0020I Exiting on maximum time
Cbc0005I Partial search - best objective 51200 (best possible 39674.113), took 4313666 iterations and 1107 nodes (1802.85 seconds)
Cbc0032I Strong branching done 4910 times (387302 iterations), fathomed 319 nodes and fixed 712 variables
Cbc0035I Maximum depth 521, 0 variables fixed on reduced cost
Cuts at root node changed objective from 37423.4 to 38621.3
Probing was tried 238 times and created 2038 cuts of which 0 were active after adding rounds of cuts (1.243 seconds)
Gomory was tried 238 times and created 550 cuts of which 0 were active after adding rounds of cuts (4.130 seconds)
Knapsack was tried 11 times and created 0 cuts of which 0 were active after adding rounds of cuts (0.022 seconds)
Clique was tried 11 times and created 0 cuts of which 0 were active after adding rounds of cuts (0.048 seconds)
MixedIntegerRounding2 was tried 11 times and created 0 cuts of which 0 were active after adding rounds of cuts (0.026 seconds)
FlowCover was tried 11 times and created 0 cuts of which 0 were active after adding rounds of cuts (0.016 seconds)
TwoMirCuts was tried 238 times and created 1947 cuts of which 0 were active after adding rounds of cuts (1.736 seconds)
ZeroHalf was tried 1 times and created 0 cuts of which 0 were active after adding rounds of cuts (0.090 seconds)

Result - Stopped on time limit

Objective value:                51200.00000000
Lower bound:                    39674.113
Gap:                            0.29
Enumerated nodes:               1107
Total iterations:               4313666
Time (CPU seconds):             1803.29
Time (Wallclock seconds):       1803.62

Total time (CPU seconds):       1803.31   (Wallclock seconds):       1803.65

